% Generado automáticamente desde instancia_03_sin_extra.mpl.
% No editar manualmente: use el conversor MPL.

n = 24;
m = 6;
p = [6, 6, 0, 0, 6, 6];

escala_v = 100;
v = [0, 15, 40, 60, 85, 100];

escala_costo = 1;
ce = [0, 0, 0, 0, 0, 0];
ct = 30;
maxM = 18;

c = array2d(1..6, 1..6, [
    0, 1, 2, 4, 6, 8,
    1, 0, 1, 3, 5, 7,
    2, 1, 0, 1, 3, 5,
    5, 3, 1, 0, 1, 2,
    7, 5, 3, 1, 0, 1,
    9, 7, 5, 2, 1, 0
]);
